p cnf 250 400
7 11 19 51 52 0
7 11 19 51 -52 0
7 11 19 -51 52 0
7 11 19 -51 -52 0
7 -11 27 53 54 0
7 -11 27 53 -54 0
7 -11 27 -53 54 0
7 -11 27 -53 -54 0
7 16 -27 55 56 0
7 16 -27 55 -56 0
7 16 -27 -55 56 0
7 16 -27 -55 -56 0
-11 25 48 57 58 0
-11 25 48 57 -58 0
-11 25 48 -57 58 0
-11 25 48 -57 -58 0
-16 17 -48 59 60 0
-16 17 -48 59 -60 0
-16 17 -48 -59 60 0
-16 17 -48 -59 -60 0
-17 25 -48 61 62 0
-17 25 -48 61 -62 0
-17 25 -48 -61 62 0
-17 25 -48 -61 -62 0
-16 -25 -27 63 64 0
-16 -25 -27 63 -64 0
-16 -25 -27 -63 64 0
-16 -25 -27 -63 -64 0
19 36 49 65 66 0
19 36 49 65 -66 0
19 36 49 -65 66 0
19 36 49 -65 -66 0
-7 -36 49 67 68 0
-7 -36 49 67 -68 0
-7 -36 49 -67 68 0
-7 -36 49 -67 -68 0
-7 19 -49 69 70 0
-7 19 -49 69 -70 0
-7 19 -49 -69 70 0
-7 19 -49 -69 -70 0
4 12 44 71 72 0
4 12 44 71 -72 0
4 12 44 -71 72 0
4 12 44 -71 -72 0
4 -12 44 73 74 0
4 -12 44 73 -74 0
4 -12 44 -73 74 0
4 -12 44 -73 -74 0
1 -44 47 75 76 0
1 -44 47 75 -76 0
1 -44 47 -75 76 0
1 -44 47 -75 -76 0
-1 4 47 77 78 0
-1 4 47 77 -78 0
-1 4 47 -77 78 0
-1 4 47 -77 -78 0
20 34 48 79 80 0
20 34 48 79 -80 0
20 34 48 -79 80 0
20 34 48 -79 -80 0
-19 20 34 81 82 0
-19 20 34 81 -82 0
-19 20 34 -81 82 0
-19 20 34 -81 -82 0
24 -34 -44 83 84 0
24 -34 -44 83 -84 0
24 -34 -44 -83 84 0
24 -34 -44 -83 -84 0
-24 -34 -44 85 86 0
-24 -34 -44 85 -86 0
-24 -34 -44 -85 86 0
-24 -34 -44 -85 -86 0
-24 -32 41 87 88 0
-24 -32 41 87 -88 0
-24 -32 41 -87 88 0
-24 -32 41 -87 -88 0
-34 -41 -47 89 90 0
-34 -41 -47 89 -90 0
-34 -41 -47 -89 90 0
-34 -41 -47 -89 -90 0
-4 -19 20 91 92 0
-4 -19 20 91 -92 0
-4 -19 20 -91 92 0
-4 -19 20 -91 -92 0
30 39 41 93 94 0
30 39 41 93 -94 0
30 39 41 -93 94 0
30 39 41 -93 -94 0
-30 39 50 95 96 0
-30 39 50 95 -96 0
-30 39 50 -95 96 0
-30 39 50 -95 -96 0
-20 -30 -50 97 98 0
-20 -30 -50 97 -98 0
-20 -30 -50 -97 98 0
-20 -30 -50 -97 -98 0
-20 -39 41 99 100 0
-20 -39 41 99 -100 0
-20 -39 41 -99 100 0
-20 -39 41 -99 -100 0
-19 32 -41 101 102 0
-19 32 -41 101 -102 0
-19 32 -41 -101 102 0
-19 32 -41 -101 -102 0
-20 -32 -41 103 104 0
-20 -32 -41 103 -104 0
-20 -32 -41 -103 104 0
-20 -32 -41 -103 -104 0
1 18 -35 105 106 0
1 18 -35 105 -106 0
1 18 -35 -105 106 0
1 18 -35 -105 -106 0
-14 18 -35 107 108 0
-14 18 -35 107 -108 0
-14 18 -35 -107 108 0
-14 18 -35 -107 -108 0
-14 -18 27 109 110 0
-14 -18 27 109 -110 0
-14 -18 27 -109 110 0
-14 -18 27 -109 -110 0
-1 25 -46 111 112 0
-1 25 -46 111 -112 0
-1 25 -46 -111 112 0
-1 25 -46 -111 -112 0
-4 16 -47 113 114 0
-4 16 -47 113 -114 0
-4 16 -47 -113 114 0
-4 16 -47 -113 -114 0
11 16 -25 115 116 0
11 16 -25 115 -116 0
11 16 -25 -115 116 0
11 16 -25 -115 -116 0
-4 11 -25 117 118 0
-4 11 -25 117 -118 0
-4 11 -25 -117 118 0
-4 11 -25 -117 -118 0
-27 -35 -47 119 120 0
-27 -35 -47 119 -120 0
-27 -35 -47 -119 120 0
-27 -35 -47 -119 -120 0
15 31 40 121 122 0
15 31 40 121 -122 0
15 31 40 -121 122 0
15 31 40 -121 -122 0
10 39 -49 123 124 0
10 39 -49 123 -124 0
10 39 -49 -123 124 0
10 39 -49 -123 -124 0
-8 -10 21 125 126 0
-8 -10 21 125 -126 0
-8 -10 21 -125 126 0
-8 -10 21 -125 -126 0
-21 -26 30 127 128 0
-21 -26 30 127 -128 0
-21 -26 30 -127 128 0
-21 -26 30 -127 -128 0
6 -11 29 129 130 0
6 -11 29 129 -130 0
6 -11 29 -129 130 0
6 -11 29 -129 -130 0
6 31 50 131 132 0
6 31 50 131 -132 0
6 31 50 -131 132 0
6 31 50 -131 -132 0
45 49 -50 133 134 0
45 49 -50 133 -134 0
45 49 -50 -133 134 0
45 49 -50 -133 -134 0
31 -45 -50 135 136 0
31 -45 -50 135 -136 0
31 -45 -50 -135 136 0
31 -45 -50 -135 -136 0
21 30 33 137 138 0
21 30 33 137 -138 0
21 30 33 -137 138 0
21 30 33 -137 -138 0
2 37 -49 139 140 0
2 37 -49 139 -140 0
2 37 -49 -139 140 0
2 37 -49 -139 -140 0
-2 17 37 141 142 0
-2 17 37 141 -142 0
-2 17 37 -141 142 0
-2 17 37 -141 -142 0
-8 14 32 143 144 0
-8 14 32 143 -144 0
-8 14 32 -143 144 0
-8 14 32 -143 -144 0
-14 -15 32 145 146 0
-14 -15 32 145 -146 0
-14 -15 32 -145 146 0
-14 -15 32 -145 -146 0
-1 37 47 147 148 0
-1 37 47 147 -148 0
-1 37 47 -147 148 0
-1 37 47 -147 -148 0
6 -38 45 149 150 0
6 -38 45 149 -150 0
6 -38 45 -149 150 0
6 -38 45 -149 -150 0
-21 -38 45 151 152 0
-21 -38 45 151 -152 0
-21 -38 45 -151 152 0
-21 -38 45 -151 -152 0
-13 -18 -42 153 154 0
-13 -18 -42 153 -154 0
-13 -18 -42 -153 154 0
-13 -18 -42 -153 -154 0
2 -6 22 155 156 0
2 -6 22 155 -156 0
2 -6 22 -155 156 0
2 -6 22 -155 -156 0
-2 -6 22 157 158 0
-2 -6 22 157 -158 0
-2 -6 22 -157 158 0
-2 -6 22 -157 -158 0
9 -28 -36 159 160 0
9 -28 -36 159 -160 0
9 -28 -36 -159 160 0
9 -28 -36 -159 -160 0
8 29 -39 161 162 0
8 29 -39 161 -162 0
8 29 -39 -161 162 0
8 29 -39 -161 -162 0
-8 -38 -39 163 164 0
-8 -38 -39 163 -164 0
-8 -38 -39 -163 164 0
-8 -38 -39 -163 -164 0
-12 17 38 165 166 0
-12 17 38 165 -166 0
-12 17 38 -165 166 0
-12 17 38 -165 -166 0
1 -15 -26 167 168 0
1 -15 -26 167 -168 0
1 -15 -26 -167 168 0
1 -15 -26 -167 -168 0
-7 -15 -26 169 170 0
-7 -15 -26 169 -170 0
-7 -15 -26 -169 170 0
-7 -15 -26 -169 -170 0
-9 36 42 171 172 0
-9 36 42 171 -172 0
-9 36 42 -171 172 0
-9 36 42 -171 -172 0
12 -16 21 173 174 0
12 -16 21 173 -174 0
12 -16 21 -173 174 0
12 -16 21 -173 -174 0
-10 -23 -46 175 176 0
-10 -23 -46 175 -176 0
-10 -23 -46 -175 176 0
-10 -23 -46 -175 -176 0
-9 -29 34 177 178 0
-9 -29 34 177 -178 0
-9 -29 34 -177 178 0
-9 -29 34 -177 -178 0
-9 -21 42 179 180 0
-9 -21 42 179 -180 0
-9 -21 42 -179 180 0
-9 -21 42 -179 -180 0
-12 -23 38 181 182 0
-12 -23 38 181 -182 0
-12 -23 38 -181 182 0
-12 -23 38 -181 -182 0
-30 38 40 183 184 0
-30 38 40 183 -184 0
-30 38 40 -183 184 0
-30 38 40 -183 -184 0
18 23 33 185 186 0
18 23 33 185 -186 0
18 23 33 -185 186 0
18 23 33 -185 -186 0
-6 15 33 187 188 0
-6 15 33 187 -188 0
-6 15 33 -187 188 0
-6 15 33 -187 -188 0
9 27 -43 189 190 0
9 27 -43 189 -190 0
9 27 -43 -189 190 0
9 27 -43 -189 -190 0
22 40 -48 191 192 0
22 40 -48 191 -192 0
22 40 -48 -191 192 0
22 40 -48 -191 -192 0
8 -22 26 193 194 0
8 -22 26 193 -194 0
8 -22 26 -193 194 0
8 -22 26 -193 -194 0
-5 -33 -36 195 196 0
-5 -33 -36 195 -196 0
-5 -33 -36 -195 196 0
-5 -33 -36 -195 -196 0
2 -33 46 197 198 0
2 -33 46 197 -198 0
2 -33 46 -197 198 0
2 -33 46 -197 -198 0
5 10 -42 199 200 0
5 10 -42 199 -200 0
5 10 -42 -199 200 0
5 10 -42 -199 -200 0
14 -29 -31 201 202 0
14 -29 -31 201 -202 0
14 -29 -31 -201 202 0
14 -29 -31 -201 -202 0
12 -23 26 203 204 0
12 -23 26 203 -204 0
12 -23 26 -203 204 0
12 -23 26 -203 -204 0
8 35 36 205 206 0
8 35 36 205 -206 0
8 35 36 -205 206 0
8 35 36 -205 -206 0
-10 -17 -18 207 208 0
-10 -17 -18 207 -208 0
-10 -17 -18 -207 208 0
-10 -17 -18 -207 -208 0
10 -22 -28 209 210 0
10 -22 -28 209 -210 0
10 -22 -28 -209 210 0
10 -22 -28 -209 -210 0
15 -17 -43 211 212 0
15 -17 -43 211 -212 0
15 -17 -43 -211 212 0
15 -17 -43 -211 -212 0
23 -29 -37 213 214 0
23 -29 -37 213 -214 0
23 -29 -37 -213 214 0
23 -29 -37 -213 -214 0
13 -33 35 215 216 0
13 -33 35 215 -216 0
13 -33 35 -215 216 0
13 -33 35 -215 -216 0
-2 23 42 217 218 0
-2 23 42 217 -218 0
-2 23 42 -217 218 0
-2 23 42 -217 -218 0
9 43 46 219 220 0
9 43 46 219 -220 0
9 43 46 -219 220 0
9 43 46 -219 -220 0
5 -24 -45 221 222 0
5 -24 -45 221 -222 0
5 -24 -45 -221 222 0
5 -24 -45 -221 -222 0
-5 43 46 223 224 0
-5 43 46 223 -224 0
-5 43 46 -223 224 0
-5 43 46 -223 -224 0
-3 -13 -40 225 226 0
-3 -13 -40 225 -226 0
-3 -13 -40 -225 226 0
-3 -13 -40 -225 -226 0
3 -28 -42 227 228 0
3 -28 -42 227 -228 0
3 -28 -42 -227 228 0
3 -28 -42 -227 -228 0
24 -31 43 229 230 0
24 -31 43 229 -230 0
24 -31 43 -229 230 0
24 -31 43 -229 -230 0
14 -22 -32 231 232 0
14 -22 -32 231 -232 0
14 -22 -32 -231 232 0
14 -22 -32 -231 -232 0
3 24 26 233 234 0
3 24 26 233 -234 0
3 24 26 -233 234 0
3 24 26 -233 -234 0
-13 -43 44 235 236 0
-13 -43 44 235 -236 0
-13 -43 44 -235 236 0
-13 -43 44 -235 -236 0
-3 -31 -40 237 238 0
-3 -31 -40 237 -238 0
-3 -31 -40 -237 238 0
-3 -31 -40 -237 -238 0
-5 -40 50 239 240 0
-5 -40 50 239 -240 0
-5 -40 50 -239 240 0
-5 -40 50 -239 -240 0
35 -37 -45 241 242 0
35 -37 -45 241 -242 0
35 -37 -45 -241 242 0
35 -37 -45 -241 -242 0
-3 5 28 243 244 0
-3 5 28 243 -244 0
-3 5 28 -243 244 0
-3 5 28 -243 -244 0
13 28 -46 245 246 0
13 28 -46 245 -246 0
13 28 -46 -245 246 0
13 28 -46 -245 -246 0
3 28 -37 247 248 0
3 28 -37 247 -248 0
3 28 -37 -247 248 0
3 28 -37 -247 -248 0
13 29 48 249 250 0
13 29 48 249 -250 0
13 29 48 -249 250 0
13 29 48 -249 -250 0
